Solving original (integer) problem with strategy gdp.hull_exact...
--- Job model.gms Start 02/14/26 17:12:18 52.2.0 d8e408be LEX-LEG x86 64bit/Linux
--- Applying:
    /package/gams/52.2/gmsprmun.txt
--- GAMS Parameters defined
    Input /local/scratch/a/sgusev/repos/k_means/data/gams_gurobi_gdp.hull_exact/no_mode/2026-02-14_17-12-18/original/model.gms
    Output /local/scratch/a/sgusev/repos/k_means/data/gams_gurobi_gdp.hull_exact/no_mode/2026-02-14_17-12-18/original/output.lst
    ScrDir /local/scratch/a/sgusev/repos/k_means/data/gams_gurobi_gdp.hull_exact/no_mode/2026-02-14_17-12-18/original/225a/
    SysDir /package/gams/52.2/
    CurDir /local/scratch/a/sgusev/repos/k_means/data/gams_gurobi_gdp.hull_exact/no_mode/2026-02-14_17-12-18/original/
    LogOption 3
    AppendLog 1
Licensee: David Bernal / SECQUOIA Research Group         G251008+0003Ac-GEN
          Purdue University, Davidson School of Chemical EngineeringDCE4838
          225a/gamslice.dat
          5a82958a-fbca-4a23
          node:66820903 mem:995 cores:48 ipport:50833 v:2                  
          Evaluation license: Not for commercial or production use
          The time-limited license stops working on : Jun 30, 2027
System information: 48 physical cores and 995 Gb physical memory detected
GAMS 52.2.0   Copyright (C) 1987-2025 GAMS Development. All rights reserved
--- Starting compilation
--- model.gms(1283) 2 Mb
--- $echo File /local/scratch/a/sgusev/repos/k_means/data/gams_gurobi_gdp.hull_exact/no_mode/2026-02-14_17-12-18/original/gurobi.opt
--- model.gms(1929) 2 Mb
--- Starting execution: elapsed 0:00:00.011
--- model.gms(1292) 3 Mb
--- Generating MINLP model GAMS_MODEL
--- model.gms(1296) 5 Mb
---   383 rows  197 columns  925 non-zeroes
---   630 nl-code  120 nl-non-zeroes
---   30 discrete-columns
--- Range statistics (absolute non-zero finite values)
--- RHS       [min, max] : [ 1.000E+00, 1.000E+00] - Zero values observed as well
--- Bound     [min, max] : [ 1.000E+00, 4.000E+01] - Zero values observed as well
--- Matrix    [min, max] : [ 1.000E+00, 4.000E+01] - Zero values observed as well
--- model.gms(1296) 3 Mb
--- Executing GUROBI (Solvelink=5): elapsed 0:00:00.014
Reading parameter(s) from "/local/scratch/a/sgusev/repos/k_means/data/gams_gurobi_gdp.hull_exact/no_mode/2026-02-14_17-12-18/original/gurobi.opt"
>>  NonConvex 2
>>  Threads 1
>>  MIPGap 1e-06
>>  MIPGapAbs 1e-10
>>  FeasibilityTol 1e-06
>>  OptimalityTol 1e-06
>>  IntFeasTol 1e-05
Finished reading from "/local/scratch/a/sgusev/repos/k_means/data/gams_gurobi_gdp.hull_exact/no_mode/2026-02-14_17-12-18/original/gurobi.opt"

... GRB_LICENSE_FILE = /local/scratch/a/sgusev/gurobi.lic

    Gurobi           52.2.0 d8e408be Dec 8, 2025           LEG x86 64bit/Linux    

... GAMS/Gurobi Link license.
... GMO Q Extraction (ThreePass): 0.00s

    Gurobi Optimizer version 13.0.0 build v13.0.0rc1 (linux64 - "Oracle Linux Server 9.7")
    
    CPU model: AMD EPYC 7643 48-Core Processor, instruction set [SSE2|AVX|AVX2]
    Thread count: 48 physical cores, 96 logical processors, using up to 1 threads
    
    Non-default parameters:
    TimeLimit  300
    MIPGap  1e-06
    LogToConsole  0
    NonConvex  2
    Threads  1
    
    Optimize a model with 352 rows, 196 columns and 794 nonzeros (Min)
    Model fingerprint: 0xa7a2ef60
    Model has 10 linear objective coefficients
    Model has 30 quadratic constraints
    Variable types: 166 continuous, 30 integer (0 binary)
    Coefficient statistics:
      Matrix range     [1e+00, 4e+01]
      QMatrix range    [2e-01, 2e+00]
      Objective range  [1e+00, 1e+00]
      Bounds range     [1e+00, 4e+01]
      RHS range        [1e+00, 1e+00]
    Presolve removed 60 rows and 70 columns
    Presolve time: 0.00s
    Presolved: 469 rows, 276 columns, 1231 nonzeros
    Presolved model has 60 quadratic constraint(s)
    Variable types: 246 continuous, 30 integer (30 binary)
    
    Root relaxation: objective 0.000000e+00, 142 iterations, 0.00 seconds (0.00 work units)
    
        Nodes    |    Current Node    |     Objective Bounds      |     Work
     Expl Unexpl |  Obj  Depth IntInf | Incumbent    BestBd   Gap | It/Node Time
    
         0     0    0.00000    0    2          -    0.00000      -     -    0s
    H    0     0                       5.0605306    0.00000   100%     -    0s
         0     0    0.00000    0    6    5.06053    0.00000   100%     -    0s
    H    0     0                       4.1120116    0.00000   100%     -    0s
         0     0    0.00000    0   20    4.11201    0.00000   100%     -    0s
         0     0    0.00000    0   17    4.11201    0.00000   100%     -    0s
         0     0    0.00000    0   16    4.11201    0.00000   100%     -    0s
         0     0    0.00000    0   16    4.11201    0.00000   100%     -    0s
         0     0    0.00000    0   10    4.11201    0.00000   100%     -    0s
         0     0    0.00000    0   16    4.11201    0.00000   100%     -    0s
         0     0    0.00000    0   13    4.11201    0.00000   100%     -    0s
         0     0    0.00000    0   14    4.11201    0.00000   100%     -    0s
    H    0     0                       2.4324112    0.00000   100%     -    0s
    *    0     0               0       2.4324112    0.00000   100%     -    0s
         0     0    0.00000    0   12    2.43241    0.00000   100%     -    0s
         0     0    0.00000    0    8    2.43241    0.00000   100%     -    0s
         0     0    0.00000    0   12    2.43241    0.00000   100%     -    0s
         0     0    0.00000    0   12    2.43241    0.00000   100%     -    0s
         0     0    0.00000    0   16    2.43241    0.00000   100%     -    0s
         0     0    0.00000    0   16    2.43241    0.00000   100%     -    0s
         0     0    0.00000    0   16    2.43241    0.00000   100%     -    0s
         0     0    0.00000    0   18    2.43241    0.00000   100%     -    0s
         0     0    0.00000    0   14    2.43241    0.00000   100%     -    0s
         0     0    0.00000    0   14    2.43241    0.00000   100%     -    0s
         0     0    0.00000    0   10    2.43241    0.00000   100%     -    0s
         0     0    0.00000    0   16    2.43241    0.00000   100%     -    0s
         0     0    0.00000    0   14    2.43241    0.00000   100%     -    0s
         0     0    0.00000    0   16    2.43241    0.00000   100%     -    0s
         0     0    0.00000    0   12    2.43241    0.00000   100%     -    0s
         0     0    0.00000    0   12    2.43241    0.00000   100%     -    0s
         0     0    0.00000    0   12    2.43241    0.00000   100%     -    0s
         0     0    0.00000    0   14    2.43241    0.00000   100%     -    0s
         0     0    0.00000    0   10    2.43241    0.00000   100%     -    0s
         0     0    0.00000    0   12    2.43241    0.00000   100%     -    0s
         0     0    0.00000    0    6    2.43241    0.00000   100%     -    0s
         0     0    0.00000    0   12    2.43241    0.00000   100%     -    0s
         0     0    0.00000    0   12    2.43241    0.00000   100%     -    0s
         0     0    0.00000    0   14    2.43241    0.00000   100%     -    0s
         0     0    0.00000    0   14    2.43241    0.00000   100%     -    0s
         0     0    0.00000    0   10    2.43241    0.00000   100%     -    0s
         0     0    0.00000    0    8    2.43241    0.00000   100%     -    0s
         0     0    0.00000    0   16    2.43241    0.00000   100%     -    0s
         0     0    0.00000    0    8    2.43241    0.00000   100%     -    0s
         0     0    0.00000    0   13    2.43241    0.00000   100%     -    0s
         0     0    0.00000    0   13    2.43241    0.00000   100%     -    0s
         0     0    0.00000    0   11    2.43241    0.00000   100%     -    0s
         0     0    0.00000    0   10    2.43241    0.00000   100%     -    0s
         0     0    0.00000    0   16    2.43241    0.00000   100%     -    0s
         0     0    0.00000    0   16    2.43241    0.00000   100%     -    0s
         0     0    0.00000    0   16    2.43241    0.00000   100%     -    0s
         0     0    0.00000    0   14    2.43241    0.00000   100%     -    0s
         0     0    0.00000    0   14    2.43241    0.00000   100%     -    0s
         0     0    0.00000    0   10    2.43241    0.00000   100%     -    0s
         0     0    0.00000    0   12    2.43241    0.00000   100%     -    0s
         0     0    0.00000    0   12    2.43241    0.00000   100%     -    0s
         0     0    0.00000    0   12    2.43241    0.00000   100%     -    0s
         0     0    0.00000    0   12    2.43241    0.00000   100%     -    0s
         0     0    0.00000    0   12    2.43241    0.00000   100%     -    0s
         0     0    0.00000    0   12    2.43241    0.00000   100%     -    0s
         0     0    0.00000    0   14    2.43241    0.00000   100%     -    0s
         0     0    0.00000    0   12    2.43241    0.00000   100%     -    0s
         0     0    0.00000    0   14    2.43241    0.00000   100%     -    0s
         0     0    0.00000    0   14    2.43241    0.00000   100%     -    0s
         0     0    0.00000    0   18    2.43241    0.00000   100%     -    0s
         0     0    0.00000    0   14    2.43241    0.00000   100%     -    0s
         0     0    0.00000    0   20    2.43241    0.00000   100%     -    0s
         0     0    0.00000    0   10    2.43241    0.00000   100%     -    0s
         0     0    0.00000    0   14    2.43241    0.00000   100%     -    0s
         0     0    0.00000    0   14    2.43241    0.00000   100%     -    0s
         0     0    0.00000    0   14    2.43241    0.00000   100%     -    0s
         0     0    0.00000    0   14    2.43241    0.00000   100%     -    0s
         0     0    0.00000    0   12    2.43241    0.00000   100%     -    0s
         0     0    0.00000    0   10    2.43241    0.00000   100%     -    0s
         0     0    0.00000    0   16    2.43241    0.00000   100%     -    0s
         0     0    0.00000    0   14    2.43241    0.00000   100%     -    0s
         0     0    0.00000    0   12    2.43241    0.00000   100%     -    0s
         0     0    0.00000    0   12    2.43241    0.00000   100%     -    0s
         0     0    0.00000    0   19    2.43241    0.00000   100%     -    0s
         0     0    0.00000    0   15    2.43241    0.00000   100%     -    0s
         0     0    0.00000    0   17    2.43241    0.00000   100%     -    0s
         0     0    0.00000    0   17    2.43241    0.00000   100%     -    0s
         0     0    0.00000    0   15    2.43241    0.00000   100%     -    0s
         0     0    0.00000    0   15    2.43241    0.00000   100%     -    0s
         0     0    0.00000    0   16    2.43241    0.00000   100%     -    0s
         0     0    0.00000    0   16    2.43241    0.00000   100%     -    0s
         0     0    0.00000    0   16    2.43241    0.00000   100%     -    0s
         0     0    0.00000    0    8    2.43241    0.00000   100%     -    0s
         0     0    0.00000    0   14    2.43241    0.00000   100%     -    0s
         0     0    0.00000    0   14    2.43241    0.00000   100%     -    0s
         0     0    0.00000    0   15    2.43241    0.00000   100%     -    0s
         0     0    0.00000    0   15    2.43241    0.00000   100%     -    0s
         0     0    0.00000    0   17    2.43241    0.00000   100%     -    0s
         0     0    0.00000    0   16    2.43241    0.00000   100%     -    0s
         0     0    0.00000    0   16    2.43241    0.00000   100%     -    0s
         0     0    0.00000    0   12    2.43241    0.00000   100%     -    0s
         0     0    0.00000    0   17    2.43241    0.00000   100%     -    0s
         0     0    0.00000    0   17    2.43241    0.00000   100%     -    0s
         0     0    0.00000    0   18    2.43241    0.00000   100%     -    0s
         0     0    0.00000    0   18    2.43241    0.00000   100%     -    0s
         0     0    0.00000    0   19    2.43241    0.00000   100%     -    0s
         0     0    0.00000    0   14    2.43241    0.00000   100%     -    0s
         0     0    0.00000    0   14    2.43241    0.00000   100%     -    0s
         0     0    0.00000    0   12    2.43241    0.00000   100%     -    0s
         0     0    0.00000    0   18    2.43241    0.00000   100%     -    0s
         0     0    0.00000    0   16    2.43241    0.00000   100%     -    0s
         0     0    0.00000    0   14    2.43241    0.00000   100%     -    0s
         0     0    0.00000    0   12    2.43241    0.00000   100%     -    0s
         0     0    0.00000    0   20    2.43241    0.00000   100%     -    0s
         0     0    0.00000    0   17    2.43241    0.00000   100%     -    0s
         0     0    0.00000    0   17    2.43241    0.00000   100%     -    0s
         0     0    0.00000    0   12    2.43241    0.00000   100%     -    0s
         0     0    0.00000    0   16    2.43241    0.00000   100%     -    0s
         0     0    0.00000    0   12    2.43241    0.00000   100%     -    0s
         0     0    0.00000    0   12    2.43241    0.00000   100%     -    0s
         0     0    0.00000    0   12    2.43241    0.00000   100%     -    0s
         0     0    0.00000    0   14    2.43241    0.00000   100%     -    0s
         0     0    0.00000    0   14    2.43241    0.00000   100%     -    0s
         0     0    0.00000    0   14    2.43241    0.00000   100%     -    0s
         0     0    0.00000    0   12    2.43241    0.00000   100%     -    0s
         0     0    0.00000    0   12    2.43241    0.00000   100%     -    0s
         0     0    0.00000    0   12    2.43241    0.00000   100%     -    0s
         0     0    0.00000    0   14    2.43241    0.00000   100%     -    0s
         0     0    0.00000    0   14    2.43241    0.00000   100%     -    0s
         0     0    0.00000    0   16    2.43241    0.00000   100%     -    0s
         0     0    0.00000    0   15    2.43241    0.00000   100%     -    0s
         0     0    0.00000    0   16    2.43241    0.00000   100%     -    0s
         0     0    0.00000    0   16    2.43241    0.00000   100%     -    0s
         0     0    0.00000    0   14    2.43241    0.00000   100%     -    0s
         0     0    0.00000    0   11    2.43241    0.00000   100%     -    0s
         0     0    0.00000    0   19    2.43241    0.00000   100%     -    0s
         0     0    0.00000    0   11    2.43241    0.00000   100%     -    0s
         0     0    0.00000    0   17    2.43241    0.00000   100%     -    0s
         0     0    0.00000    0   17    2.43241    0.00000   100%     -    0s
         0     0    0.00000    0   20    2.43241    0.00000   100%     -    0s
         0     0    0.00000    0   14    2.43241    0.00000   100%     -    0s
         0     0    0.00000    0   16    2.43241    0.00000   100%     -    0s
         0     0    0.00000    0   14    2.43241    0.00000   100%     -    0s
         0     0    0.00000    0   18    2.43241    0.00000   100%     -    0s
         0     0    0.00000    0   18    2.43241    0.00000   100%     -    0s
         0     0    0.00000    0   20    2.43241    0.00000   100%     -    0s
         0     0    0.00000    0    8    2.43241    0.00000   100%     -    0s
         0     0    0.00000    0   10    2.43241    0.00000   100%     -    0s
         0     0    0.00000    0   10    2.43241    0.00000   100%     -    0s
         0     0    0.00000    0   11    2.43241    0.00000   100%     -    0s
         0     0    0.00000    0   11    2.43241    0.00000   100%     -    0s
         0     0    0.00000    0   10    2.43241    0.00000   100%     -    0s
         0     0    0.00000    0   10    2.43241    0.00000   100%     -    0s
         0     0    0.00000    0   10    2.43241    0.00000   100%     -    0s
         0     0    0.00000    0   10    2.43241    0.00000   100%     -    0s
         0     0    0.00000    0   10    2.43241    0.00000   100%     -    0s
         0     0    0.00000    0    8    2.43241    0.00000   100%     -    0s
         0     0    0.00000    0   12    2.43241    0.00000   100%     -    0s
         0     0    0.00000    0   12    2.43241    0.00000   100%     -    0s
         0     0    0.00000    0   12    2.43241    0.00000   100%     -    0s
         0     0    0.00000    0   12    2.43241    0.00000   100%     -    0s
         0     0    0.00000    0   12    2.43241    0.00000   100%     -    0s
         0     0    0.00000    0    9    2.43241    0.00000   100%     -    0s
         0     0    0.00000    0    9    2.43241    0.00000   100%     -    0s
         0     0    0.00000    0   11    2.43241    0.00000   100%     -    0s
         0     0    0.00000    0   11    2.43241    0.00000   100%     -    0s
         0     0    0.00000    0   12    2.43241    0.00000   100%     -    0s
         0     0    0.00000    0   10    2.43241    0.00000   100%     -    0s
         0     0    0.00000    0   10    2.43241    0.00000   100%     -    0s
         0     0    0.00000    0   10    2.43241    0.00000   100%     -    0s
         0     0    0.00000    0    8    2.43241    0.00000   100%     -    0s
         0     0    0.00000    0    8    2.43241    0.00000   100%     -    0s
         0     0    0.00000    0   15    2.43241    0.00000   100%     -    0s
         0     0    0.00000    0   12    2.43241    0.00000   100%     -    0s
         0     0    0.00000    0   14    2.43241    0.00000   100%     -    0s
         0     0    0.00000    0   14    2.43241    0.00000   100%     -    0s
         0     0    0.00000    0   18    2.43241    0.00000   100%     -    0s
         0     0    0.00000    0   16    2.43241    0.00000   100%     -    0s
         0     0    0.00000    0   18    2.43241    0.00000   100%     -    0s
         0     0    0.00000    0   16    2.43241    0.00000   100%     -    0s
         0     0    0.00000    0   14    2.43241    0.00000   100%     -    0s
         0     0    0.00000    0   12    2.43241    0.00000   100%     -    0s
         0     0    0.00000    0   10    2.43241    0.00000   100%     -    0s
         0     0    0.00000    0   10    2.43241    0.00000   100%     -    0s
         0     0    0.00000    0   14    2.43241    0.00000   100%     -    0s
         0     0    0.00000    0   14    2.43241    0.00000   100%     -    0s
         0     0    0.00000    0   14    2.43241    0.00000   100%     -    0s
         0     0    0.00000    0   13    2.43241    0.00000   100%     -    0s
         0     0    0.00000    0   15    2.43241    0.00000   100%     -    0s
         0     0    0.00000    0   15    2.43241    0.00000   100%     -    0s
         0     0    0.00000    0   15    2.43241    0.00000   100%     -    0s
         0     0    0.00000    0   14    2.43241    0.00000   100%     -    0s
         0     0    0.00000    0   14    2.43241    0.00000   100%     -    0s
         0     0    0.00000    0   14    2.43241    0.00000   100%     -    0s
         0     0    0.00000    0   14    2.43241    0.00000   100%     -    0s
         0     0    0.00000    0   14    2.43241    0.00000   100%     -    0s
         0     0    0.00000    0   16    2.43241    0.00000   100%     -    0s
         0     0    0.00000    0   12    2.43241    0.00000   100%     -    0s
         0     0    0.00000    0   16    2.43241    0.00000   100%     -    0s
         0     0    0.00000    0   15    2.43241    0.00000   100%     -    0s
         0     0    0.00000    0   16    2.43241    0.00000   100%     -    0s
         0     0    0.00000    0   16    2.43241    0.00000   100%     -    0s
         0     0    0.00000    0   18    2.43241    0.00000   100%     -    0s
         0     0    0.00000    0   16    2.43241    0.00000   100%     -    0s
         0     0    0.00000    0   18    2.43241    0.00000   100%     -    0s
         0     0    0.00000    0   16    2.43241    0.00000   100%     -    0s
         0     0    0.00000    0   18    2.43241    0.00000   100%     -    0s
         0     0    0.00000    0   16    2.43241    0.00000   100%     -    0s
         0     2    0.00000    0   10    2.43241    0.00000   100%     -    0s
    H    3     3                       2.2894711    0.00000   100%  59.7    0s
    H   46    28                       1.8405392    0.00000   100%  54.7    0s
    H  341    59                       1.7800656    0.69396  61.0%  40.6    0s
    *  446     0              16       1.7800654    1.78007  0.00%  40.3    0s
    
    Cutting planes:
      Implied bound: 16
      MIR: 4
      Flow cover: 12
      Inf proof: 2
      RLT: 14
      Relax-and-lift: 3
    
    Explored 447 nodes (38215 simplex iterations) in 0.91 seconds (0.80 work units)
    Thread count was 1 (of 96 available processors)
    
    Solution count 6: 1.78007 1.84054 2.28947 ... 5.06053
    
    Optimal solution found (tolerance 1.00e-06)
    Best objective 1.780065381926e+00, best bound 1.780065381926e+00, gap 0.0000%
    
    User-callback calls 556, time in user-callback 0.00 sec

... Solving fixed model...

    Gurobi Optimizer version 13.0.0 build v13.0.0rc1 (linux64 - "Oracle Linux Server 9.7")
    
    CPU model: AMD EPYC 7643 48-Core Processor, instruction set [SSE2|AVX|AVX2]
    Thread count: 48 physical cores, 96 logical processors, using up to 1 threads
    
    Non-default parameters:
    TimeLimit  300
    MIPGap  1e-06
    LogToConsole  0
    NonConvex  2
    Threads  1
    
    Optimize a model with 352 rows, 196 columns and 794 nonzeros (Min)
    Model fingerprint: 0x79285d69
    Model has 10 linear objective coefficients
    Model has 30 quadratic constraints
    Coefficient statistics:
      Matrix range     [1e+00, 4e+01]
      QMatrix range    [2e-01, 2e+00]
      Objective range  [1e+00, 1e+00]
      Bounds range     [1e+00, 4e+01]
      RHS range        [1e+00, 1e+00]
    Presolve removed 350 rows and 180 columns
    Presolve time: 0.00s
    Presolved: 39 rows, 50 columns, 95 nonzeros
    Presolved model has 10 second-order cone constraints
    Ordering time: 0.00s
    
    Barrier statistics:
     AA' NZ     : 2.110e+02
     Factor NZ  : 3.230e+02
     Factor Ops : 3.483e+03 (less than 1 second per iteration)
     Threads    : 1
    
                      Objective                Residual
    Iter       Primal          Dual         Primal    Dual     Compl     Time
       0   2.90323428e+02 -1.27764681e+02  1.09e+01 2.65e+00  9.02e+00     0s
       1   3.32910166e+01 -2.42542932e+01  1.20e-05 2.92e-06  8.22e-01     0s
       2   2.67046462e+00 -4.07347797e+00  2.45e-07 5.05e-07  9.63e-02     0s
       3   2.25821338e+00  7.71129990e-01  1.44e-10 4.67e-08  2.12e-02     0s
       4   1.83019729e+00  1.65179593e+00  9.33e-15 5.00e-09  2.55e-03     0s
       5   1.78155136e+00  1.77584574e+00  4.25e-14 1.45e-10  8.15e-05     0s
       6   1.78013391e+00  1.77967844e+00  1.38e-12 1.45e-11  6.51e-06     0s
       7   1.78006959e+00  1.78005783e+00  2.45e-11 2.49e-13  1.68e-07     0s
       8   1.78006555e+00  1.78006385e+00  1.12e-09 2.07e-12  2.43e-08     0s
    
    Barrier solved model in 8 iterations and 0.00 seconds (0.00 work units)
    Optimal objective 1.78006555e+00
    
    
    User-callback calls 0, time in user-callback 0.00 sec
    Warning: to get QCP duals, please set parameter QCPDual to 1

--- Reading solution for model GAMS_MODEL
***
*** Solver did not provide marginals for model GAMS_MODEL
***
--- Executing after solve: elapsed 0:00:00.954
--- model.gms(1299) 3 Mb
--- model.gms(1929) 5 Mb
--- Putfile results /local/scratch/a/sgusev/repos/k_means/data/gams_gurobi_gdp.hull_exact/no_mode/2026-02-14_17-12-18/original/results.dat
--- Putfile statresults /local/scratch/a/sgusev/repos/k_means/data/gams_gurobi_gdp.hull_exact/no_mode/2026-02-14_17-12-18/original/resultsstat.dat
*** Status: Normal completion
--- Job model.gms Stop 02/14/26 17:12:19 elapsed 0:00:00.955
Original problem solved. Time taken: 1.5400619506835938 seconds
Original objective value: 1.780065550679482
